NAME : traveling-santa-2018-prime-paths.32210.tour
COMMENT : Length = 32210
COMMENT : Found by LKH [Keld Helsgaun] Sun Jun 12 19:59:33 2022
TYPE : TOUR
DIMENSION : 100
TOUR_SECTION
1
27
7
60
85
29
87
80
94
40
15
19
75
3
66
34
78
89
83
16
63
51
58
79
25
13
23
24
86
39
70
74
55
72
47
30
46
62
90
48
9
99
59
38
53
8
93
6
11
97
69
64
22
12
92
54
71
17
57
81
50
33
73
68
61
98
41
21
32
77
65
31
76
100
52
67
88
42
43
14
28
95
44
36
18
26
20
10
35
56
49
5
2
4
45
91
96
84
82
37
-1
EOF
